Route #1: 2 11 33 91 64 12 65 50 37 48 47 46 18 85 6 61
Route #2: 7 96 97 100 60 94 99 38 93 98 88 58 3 74 22 41
Route #3: 29 77 78 4 80 30 25 55 81 69 13 27
Route #4: 53 19 84 9 83 49 20 63 89 8 32 70 28
Route #5: 71 31 21 67 72 66 36 35 79 82 10 52 34 51
Route #6: 73 75 42 23 76 57 24 68 40 56 26 5
Route #7: 90 95 14 59 54
Route #8: 101 92 86 62 17 87 39 45 15 44 16 43
cost 859